(set-logic QF_SLAH)

(declare-datatypes ((data_t 0)) (((c_data_t (sz Int)))))

(declare-heap (Int data_t))

(define-fun hck ((?x Int) (?y Int) (?v Int)) Bool
	(and
		(>= (- ?y ?x) 2) (<= (- ?y ?x) ?v)
		(sep (pto ?x (c_data_t (- ?y ?x))) (blk (+ ?x 1) ?y))
))

(define-fun-rec hls ((?x Int) (?y Int) (?v Int)) Bool
	(or
		(and (= ?x ?y) (_ emp Int data_t))
		(exists ((?w Int)) (sep (hck ?x ?w ?v) (hls ?w ?y ?v)))
))

(declare-const x0 Int)
(declare-const x1 Int)
(declare-const x2 Int)
(declare-const x3 Int)
(declare-const x4 Int)
(declare-const x5 Int)
(declare-const x6 Int)
(declare-const x7 Int)
(declare-const v6 Int)
(declare-const x8 Int)
(declare-const x9 Int)
(declare-const x10 Int)
(declare-const x11 Int)
(declare-const x12 Int)
(declare-const x13 Int)
(declare-const x14 Int)
(declare-const x15 Int)
(declare-const x16 Int)
(declare-const x17 Int)
(declare-const v16 Int)
(declare-const x18 Int)
(declare-const x19 Int)
(declare-const v18 Int)
(declare-const x20 Int)
(declare-const x21 Int)
(declare-const x22 Int)
(declare-const x23 Int)
(declare-const x24 Int)
(declare-const x25 Int)
(declare-const x26 Int)
(declare-const x27 Int)
(declare-const x28 Int)
(declare-const x29 Int)
(declare-const x30 Int)
(declare-const x31 Int)
(declare-const x32 Int)
(declare-const x33 Int)
(declare-const v32 Int)
(declare-const x34 Int)
(declare-const x35 Int)
(declare-const x36 Int)
(declare-const x37 Int)
(declare-const v36 Int)
(declare-const x38 Int)
(declare-const x39 Int)
(declare-const v38 Int)
(declare-const x40 Int)
(declare-const x41 Int)
(declare-const x42 Int)
(declare-const x43 Int)
(declare-const v42 Int)
(declare-const x44 Int)
(declare-const x45 Int)
(declare-const x46 Int)
(declare-const x47 Int)
(declare-const v46 Int)
(declare-const x48 Int)
(declare-const x49 Int)
(declare-const x50 Int)
(declare-const x51 Int)
(declare-const v50 Int)
(declare-const x52 Int)
(declare-const x53 Int)
(declare-const x54 Int)
(declare-const x55 Int)
(declare-const x56 Int)
(declare-const x57 Int)
(declare-const x58 Int)
(declare-const x59 Int)
(declare-const v58 Int)
(declare-const x60 Int)
(declare-const x61 Int)
(declare-const v60 Int)
(declare-const x62 Int)
(declare-const x63 Int)
(declare-const x64 Int)
(declare-const x65 Int)
(declare-const x66 Int)
(declare-const x67 Int)
(declare-const x68 Int)
(declare-const x69 Int)
(declare-const x70 Int)
(declare-const x71 Int)
(declare-const x72 Int)
(declare-const x73 Int)
(declare-const x74 Int)
(declare-const x75 Int)
(declare-const x76 Int)
(declare-const x77 Int)
(declare-const x78 Int)
(declare-const x79 Int)
(declare-const x80 Int)
(declare-const x81 Int)
(declare-const v80 Int)
(declare-const x82 Int)
(declare-const x83 Int)
(declare-const x84 Int)
(declare-const x85 Int)
(declare-const x86 Int)
(declare-const x87 Int)
(declare-const x88 Int)
(declare-const x89 Int)
(declare-const x90 Int)
(declare-const x91 Int)
(declare-const x92 Int)
(declare-const x93 Int)
(declare-const x94 Int)
(declare-const x95 Int)
(declare-const x96 Int)
(declare-const x97 Int)
(declare-const v96 Int)
(declare-const x98 Int)
(declare-const x99 Int)
(declare-const v98 Int)
(declare-const x100 Int)
(declare-const x101 Int)
(declare-const v100 Int)
(declare-const x102 Int)
(declare-const x103 Int)
(declare-const x104 Int)
(declare-const x105 Int)
(declare-const v104 Int)
(declare-const x106 Int)
(declare-const x107 Int)
(declare-const v106 Int)
(declare-const x108 Int)
(declare-const x109 Int)
(declare-const x110 Int)
(declare-const x111 Int)
(declare-const v110 Int)
(declare-const x112 Int)
(declare-const x113 Int)
(declare-const x114 Int)
(declare-const x115 Int)
(declare-const x116 Int)
(declare-const x117 Int)
(declare-const x118 Int)
(declare-const x119 Int)
(declare-const v118 Int)
(declare-const x120 Int)
(declare-const x121 Int)
(declare-const v120 Int)
(declare-const x122 Int)
(declare-const x123 Int)
(declare-const x124 Int)
(declare-const x125 Int)
(declare-const x126 Int)
(declare-const x127 Int)
(declare-const v126 Int)
(declare-const x128 Int)
(declare-const x129 Int)
(declare-const x130 Int)
(declare-const x131 Int)
(declare-const v130 Int)
(declare-const x132 Int)
(declare-const x133 Int)
(declare-const x134 Int)
(declare-const x135 Int)
(declare-const x136 Int)
(declare-const x137 Int)
(declare-const v136 Int)
(declare-const x138 Int)
(declare-const x139 Int)

(assert(and
(distinct x34 x27) (< x88 x6) (= x85 x5) (< x58 x91) (= x5 x113) (distinct x132 x59) (distinct x8 x121) 
(sep
(blk x0 x1)
(pto x2 (c_data_t x3))
(pto x4 (c_data_t x5))
(hls x6 x7 v6)
(blk x8 x9)
(blk x10 x11)
(pto x12 (c_data_t x13))
(pto x14 (c_data_t x15))
(hls x16 x17 v16)
(hls x18 x19 v18)
(blk x20 x21)
(blk x22 x23)
(pto x24 (c_data_t x25))
(blk x26 x27)
(blk x28 x29)
(pto x30 (c_data_t x31))
(hls x32 x33 v32)
(pto x34 (c_data_t x35))
(hls x36 x37 v36)
(hls x38 x39 v38)
(blk x40 x41)
(hls x42 x43 v42)
(blk x44 x45)
(hls x46 x47 v46)
(blk x48 x49)
(hls x50 x51 v50)
(pto x52 (c_data_t x53))
(blk x54 x55)
(blk x56 x57)
(hls x58 x59 v58)
(hls x60 x61 v60)
(blk x62 x63)
(blk x64 x65)
(pto x66 (c_data_t x67))
(blk x68 x69)
(blk x70 x71)
(blk x72 x73)
(pto x74 (c_data_t x75))
(blk x76 x77)
(blk x78 x79)
(hls x80 x81 v80)
(blk x82 x83)
(blk x84 x85)
(blk x86 x87)
(pto x88 (c_data_t x89))
(pto x90 (c_data_t x91))
(pto x92 (c_data_t x93))
(blk x94 x95)
(hls x96 x97 v96)
(hls x98 x99 v98)
(hls x100 x101 v100)
(pto x102 (c_data_t x103))
(hls x104 x105 v104)
(hls x106 x107 v106)
(pto x108 (c_data_t x109))
(hls x110 x111 v110)
(blk x112 x113)
(blk x114 x115)
(pto x116 (c_data_t x117))
(hls x118 x119 v118)
(hls x120 x121 v120)
(pto x122 (c_data_t x123))
(pto x124 (c_data_t x125))
(hls x126 x127 v126)
(blk x128 x129)
(hls x130 x131 v130)
(blk x132 x133)
(pto x134 (c_data_t x135))
(hls x136 x137 v136)
(pto x138 (c_data_t x139))
)))

(check-sat)